\* Foodies_VRP *\
Minimize
TotalCost: 175.025 Route_r1 + 181.579583333 Route_r10 + 173.11125 Route_r100
 + 205.30375 Route_r101 + 216.69625 Route_r102 + 195.495833333 Route_r103
 + 192.074166667 Route_r104 + 112.99625 Route_r105 + 166.415833333 Route_r106
 + 258.22125 Route_r107 + 347.662083333 Route_r108 + 103.224166667 Route_r109
 + 198.874166667 Route_r11 + 183.5275 Route_r110 + 197.01 Route_r111
 + 211.255833333 Route_r112 + 262.689166667 Route_r113
 + 374.237083333 Route_r114 + 154.183333333 Route_r115 + 218.505 Route_r116
 + 270.089166667 Route_r117 + 229.529583333 Route_r118 + 240.845 Route_r119
 + 146.885416667 Route_r12 + 247.695 Route_r120 + 273.590416667 Route_r121
 + 158.020416667 Route_r122 + 217.4975 Route_r123 + 242.98125 Route_r124
 + 32.8395833333 Route_r125 + 72.25 Route_r126 + 159.77625 Route_r127
 + 243.797916667 Route_r128 + 355.345833333 Route_r129
 + 192.685833333 Route_r13 + 102.94625 Route_r130 + 122.11125 Route_r131
 + 145.545416667 Route_r132 + 149.95625 Route_r133 + 159.40375 Route_r134
 + 186.62375 Route_r135 + 146.182083333 Route_r136 + 175.89125 Route_r137
 + 207.065 Route_r138 + 234.409583333 Route_r139 + 214.177083333 Route_r14
 + 245.725 Route_r140 + 188.342916667 Route_r141 + 199.735416667 Route_r142
 + 170.187083333 Route_r143 + 185.985833333 Route_r144
 + 197.378333333 Route_r145 + 60.8608333333 Route_r146 + 85.62125 Route_r147
 + 145.134166667 Route_r148 + 143.29125 Route_r149 + 205.993333333 Route_r15
 + 170.973333333 Route_r150 + 193.865 Route_r151 + 200.715 Route_r152
 + 274.465833333 Route_r153 + 174.55375 Route_r154 + 222.4575 Route_r155
 + 166.765833333 Route_r156 + 300.05625 Route_r157 + 252.922083333 Route_r158
 + 180.94875 Route_r159 + 137.37875 Route_r16 + 209.335833333 Route_r160
 + 246.775833333 Route_r161 + 119.95125 Route_r162 + 148.337916667 Route_r163
 + 128.975833333 Route_r164 + 224.535 Route_r165 + 297.59875 Route_r166
 + 402.640833333 Route_r167 + 196.735 Route_r168 + 209.665416667 Route_r169
 + 175.315 Route_r17 + 188.650833333 Route_r170 + 261.714583333 Route_r171
 + 244.745 Route_r172 + 203.536666667 Route_r173 + 256.134166667 Route_r174
 + 269.089166667 Route_r175 + 265.615833333 Route_r176 + 325.13625 Route_r177
 + 48.8804166667 Route_r178 + 76.6670833333 Route_r179
 + 109.761666667 Route_r18 + 135.511666667 Route_r180 + 67.13125 Route_r181
 + 97.58875 Route_r182 + 120.177083333 Route_r183 + 100.589166667 Route_r184
 + 123.1775 Route_r185 + 138.511666667 Route_r186 + 206.280416667 Route_r187
 + 243.889166667 Route_r188 + 307.96125 Route_r189 + 188.39625 Route_r19
 + 415.797083333 Route_r190 + 156.635 Route_r191 + 201.032083333 Route_r192
 + 224.671666667 Route_r193 + 150.786666667 Route_r194
 + 247.343333333 Route_r195 + 352.385416667 Route_r196 + 181.72875 Route_r197
 + 240.993333333 Route_r198 + 258.253333333 Route_r199 + 189.455 Route_r2
 + 114.54125 Route_r20 + 162.376666667 Route_r200 + 190.64375 Route_r201
 + 164.162916667 Route_r202 + 191.129166667 Route_r203
 + 219.515833333 Route_r204 + 190.581666667 Route_r205 + 226.1775 Route_r206
 + 254.564583333 Route_r207 + 186.6375 Route_r208 + 217.465833333 Route_r209
 + 162.80875 Route_r21 + 218.660833333 Route_r210 + 232.415 Route_r211
 + 251.074166667 Route_r212 + 273.252083333 Route_r213 + 332.7725 Route_r214
 + 224.95125 Route_r215 + 254.19875 Route_r216 + 3000 Route_r217
 + 3000 Route_r218 + 3000 Route_r219 + 146.4575 Route_r22 + 3000 Route_r220
 + 3000 Route_r221 + 3000 Route_r222 + 3000 Route_r223 + 3000 Route_r224
 + 3000 Route_r225 + 3000 Route_r226 + 3000 Route_r227 + 3000 Route_r228
 + 3000 Route_r229 + 167.664583333 Route_r23 + 3000 Route_r230
 + 3000 Route_r231 + 3000 Route_r232 + 3000 Route_r233 + 3000 Route_r234
 + 3000 Route_r235 + 3000 Route_r236 + 3000 Route_r237 + 3000 Route_r238
 + 3000 Route_r239 + 206.42875 Route_r24 + 3000 Route_r240 + 3000 Route_r241
 + 3000 Route_r242 + 3000 Route_r243 + 3000 Route_r244 + 3000 Route_r245
 + 3000 Route_r246 + 3000 Route_r247 + 3000 Route_r248 + 3000 Route_r249
 + 231.9125 Route_r25 + 3000 Route_r250 + 3000 Route_r251 + 3000 Route_r252
 + 3000 Route_r253 + 3000 Route_r254 + 3000 Route_r255 + 3000 Route_r256
 + 3000 Route_r257 + 3000 Route_r258 + 3000 Route_r259
 + 189.431666667 Route_r26 + 3000 Route_r260 + 3000 Route_r261
 + 3000 Route_r262 + 3000 Route_r263 + 3000 Route_r264 + 3000 Route_r265
 + 3000 Route_r266 + 3000 Route_r267 + 3000 Route_r268 + 3000 Route_r269
 + 212.718333333 Route_r27 + 3000 Route_r270 + 3000 Route_r271
 + 3000 Route_r272 + 3000 Route_r273 + 3000 Route_r274 + 3000 Route_r275
 + 3000 Route_r276 + 3000 Route_r277 + 3000 Route_r278 + 3000 Route_r279
 + 233.925416667 Route_r28 + 3000 Route_r280 + 3000 Route_r281
 + 3000 Route_r282 + 3000 Route_r283 + 3000 Route_r284 + 3000 Route_r285
 + 3000 Route_r286 + 3000 Route_r287 + 3000 Route_r288 + 3000 Route_r289
 + 89.9254166667 Route_r29 + 3000 Route_r290 + 3000 Route_r291
 + 3000 Route_r292 + 3000 Route_r293 + 3000 Route_r294 + 3000 Route_r295
 + 3000 Route_r296 + 3000 Route_r297 + 3000 Route_r298 + 3000 Route_r299
 + 202.59875 Route_r3 + 213.962083333 Route_r30 + 3000 Route_r300
 + 3000 Route_r301 + 3000 Route_r302 + 3000 Route_r303 + 3000 Route_r304
 + 3000 Route_r305 + 3000 Route_r306 + 3000 Route_r307 + 3000 Route_r308
 + 3000 Route_r309 + 128.03125 Route_r31 + 3000 Route_r310 + 3000 Route_r311
 + 3000 Route_r312 + 3000 Route_r313 + 3000 Route_r314 + 3000 Route_r315
 + 3000 Route_r316 + 3000 Route_r317 + 3000 Route_r318 + 3000 Route_r319
 + 156.13625 Route_r32 + 3000 Route_r320 + 3000 Route_r321 + 3000 Route_r322
 + 3000 Route_r323 + 3000 Route_r324 + 3000 Route_r325 + 3000 Route_r326
 + 3000 Route_r327 + 3000 Route_r328 + 3000 Route_r329
 + 201.936666667 Route_r33 + 3000 Route_r330 + 3000 Route_r331
 + 3000 Route_r332 + 3000 Route_r333 + 3000 Route_r334 + 3000 Route_r335
 + 3000 Route_r336 + 3000 Route_r337 + 3000 Route_r338 + 3000 Route_r339
 + 143.65125 Route_r34 + 3000 Route_r340 + 3000 Route_r341 + 3000 Route_r342
 + 3000 Route_r343 + 3000 Route_r344 + 3000 Route_r345 + 3000 Route_r346
 + 3000 Route_r347 + 3000 Route_r348 + 3000 Route_r349
 + 197.117916667 Route_r35 + 3000 Route_r350 + 3000 Route_r351
 + 3000 Route_r352 + 3000 Route_r353 + 3000 Route_r354 + 3000 Route_r355
 + 3000 Route_r356 + 3000 Route_r357 + 3000 Route_r358 + 3000 Route_r359
 + 172.042916667 Route_r36 + 3000 Route_r360 + 3000 Route_r361
 + 3000 Route_r362 + 3000 Route_r363 + 3000 Route_r364 + 3000 Route_r365
 + 3000 Route_r366 + 3000 Route_r367 + 3000 Route_r368 + 3000 Route_r369
 + 192.97 Route_r37 + 3000 Route_r370 + 3000 Route_r371 + 3000 Route_r372
 + 3000 Route_r373 + 3000 Route_r374 + 3000 Route_r375 + 3000 Route_r376
 + 3000 Route_r377 + 3000 Route_r378 + 3000 Route_r379
 + 242.176666667 Route_r38 + 3000 Route_r380 + 3000 Route_r381
 + 3000 Route_r382 + 3000 Route_r383 + 3000 Route_r384 + 3000 Route_r385
 + 3000 Route_r386 + 3000 Route_r387 + 3000 Route_r388 + 3000 Route_r389
 + 187.870833333 Route_r39 + 3000 Route_r390 + 3000 Route_r391
 + 3000 Route_r392 + 3000 Route_r393 + 3000 Route_r394 + 3000 Route_r395
 + 3000 Route_r396 + 3000 Route_r397 + 3000 Route_r398 + 3000 Route_r399
 + 221.669583333 Route_r4 + 145.618333333 Route_r40 + 3000 Route_r400
 + 3000 Route_r401 + 3000 Route_r402 + 3000 Route_r403 + 3000 Route_r404
 + 3000 Route_r405 + 3000 Route_r406 + 3000 Route_r407 + 3000 Route_r408
 + 3000 Route_r409 + 153.430833333 Route_r41 + 3000 Route_r410
 + 3000 Route_r411 + 3000 Route_r412 + 3000 Route_r413 + 3000 Route_r414
 + 3000 Route_r415 + 3000 Route_r416 + 3000 Route_r417 + 3000 Route_r418
 + 3000 Route_r419 + 189.932916667 Route_r42 + 3000 Route_r420
 + 3000 Route_r421 + 3000 Route_r422 + 3000 Route_r423 + 3000 Route_r424
 + 3000 Route_r425 + 3000 Route_r426 + 3000 Route_r427 + 3000 Route_r428
 + 3000 Route_r429 + 265.3975 Route_r43 + 3000 Route_r430 + 3000 Route_r431
 + 3000 Route_r432 + 131.086666667 Route_r44 + 191.362083333 Route_r45
 + 236.495 Route_r46 + 175.40125 Route_r47 + 205.589583333 Route_r48
 + 73.5945833333 Route_r49 + 157.215416667 Route_r5 + 78.90875 Route_r50
 + 106.05125 Route_r51 + 153.8625 Route_r52 + 247.234166667 Route_r53
 + 108.837083333 Route_r54 + 125.290416667 Route_r55 + 120.41625 Route_r56
 + 148.8825 Route_r57 + 168.92375 Route_r58 + 90.2858333333 Route_r59
 + 175.972916667 Route_r6 + 142.144583333 Route_r60 + 119.63625 Route_r61
 + 163.950833333 Route_r62 + 180.567083333 Route_r63 + 244.394166667 Route_r64
 + 104.1925 Route_r65 + 151.400416667 Route_r66 + 118.685416667 Route_r67
 + 158.381666667 Route_r68 + 203.89125 Route_r69 + 145.722083333 Route_r7
 + 248.205833333 Route_r70 + 137.95375 Route_r71 + 198.175 Route_r72
 + 208.220416667 Route_r73 + 260.590416667 Route_r74 + 303.775416667 Route_r75
 + 319.218333333 Route_r76 + 142.760416667 Route_r77 + 254.1775 Route_r78
 + 192.974583333 Route_r79 + 209.244583333 Route_r8 + 206.4575 Route_r80
 + 204.448333333 Route_r81 + 215.840833333 Route_r82 + 264.24625 Route_r83
 + 291.504583333 Route_r84 + 232.824166667 Route_r85 + 241.889583333 Route_r86
 + 267.785 Route_r87 + 324.539583333 Route_r88 + 226.125 Route_r89
 + 173.92875 Route_r9 + 281.56 Route_r90 + 120.107916667 Route_r91
 + 130.16625 Route_r92 + 160.882916667 Route_r93 + 151.79 Route_r94
 + 234.455833333 Route_r95 + 254.300833333 Route_r96 + 265.693333333 Route_r97
 + 114.280416667 Route_r98 + 170.3625 Route_r99
Subject To
Four_Square_AlbertonDemands: Route_r105 + Route_r106 + Route_r107 + Route_r108
 + Route_r113 + Route_r114 + Route_r126 + Route_r127 + Route_r128 + Route_r129
 + Route_r158 + Route_r160 + Route_r163 + Route_r164 + Route_r179 + Route_r180
 + Route_r181 + Route_r186 + Route_r204 + Route_r207 + Route_r292 + Route_r300
 + Route_r307 + Route_r321 + Route_r322 + Route_r323 + Route_r324 + Route_r329
 + Route_r330 + Route_r342 + Route_r343 + Route_r344 + Route_r345 + Route_r374
 + Route_r376 + Route_r379 + Route_r380 + Route_r395 + Route_r396 + Route_r397
 + Route_r402 + Route_r420 + Route_r423 + Route_r76 + Route_r84 + Route_r91
 = 1
Four_Square_Botany_JunctionDemands: Route_r10 + Route_r102 + Route_r107
 + Route_r108 + Route_r11 + Route_r116 + Route_r117 + Route_r122 + Route_r123
 + Route_r124 + Route_r13 + Route_r139 + Route_r140 + Route_r142 + Route_r145
 + Route_r15 + Route_r153 + Route_r157 + Route_r17 + Route_r220 + Route_r224
 + Route_r226 + Route_r227 + Route_r229 + Route_r231 + Route_r233 + Route_r24
 + Route_r240 + Route_r241 + Route_r246 + Route_r249 + Route_r25 + Route_r254
 + Route_r255 + Route_r291 + Route_r298 + Route_r299 + Route_r30 + Route_r300
 + Route_r305 + Route_r306 + Route_r313 + Route_r318 + Route_r323 + Route_r324
 + Route_r33 + Route_r332 + Route_r333 + Route_r338 + Route_r339 + Route_r340
 + Route_r355 + Route_r356 + Route_r358 + Route_r361 + Route_r369 + Route_r373
 + Route_r38 + Route_r39 + Route_r4 + Route_r75 + Route_r8 + Route_r82
 + Route_r83 + Route_r84 + Route_r89 + Route_r90 + Route_r97 = 1
Four_Square_Cockle_BayDemands: Route_r108 + Route_r114 + Route_r117
 + Route_r118 + Route_r119 + Route_r120 + Route_r121 + Route_r129 + Route_r291
 + Route_r292 + Route_r294 + Route_r299 + Route_r300 + Route_r301 + Route_r302
 + Route_r303 + Route_r304 + Route_r306 + Route_r312 + Route_r313 + Route_r324
 + Route_r330 + Route_r333 + Route_r334 + Route_r335 + Route_r336 + Route_r337
 + Route_r345 + Route_r75 + Route_r76 + Route_r78 + Route_r83 + Route_r84
 + Route_r85 + Route_r86 + Route_r87 + Route_r88 + Route_r90 + Route_r96
 + Route_r97 = 1
Four_Square_EllerslieDemands: Route_r100 + Route_r104 + Route_r106
 + Route_r107 + Route_r108 + Route_r109 + Route_r112 + Route_r113 + Route_r114
 + Route_r121 + Route_r127 + Route_r128 + Route_r129 + Route_r132 + Route_r135
 + Route_r149 + Route_r150 + Route_r153 + Route_r157 + Route_r289 + Route_r290
 + Route_r291 + Route_r292 + Route_r293 + Route_r303 + Route_r304 + Route_r308
 + Route_r309 + Route_r314 + Route_r315 + Route_r316 + Route_r320 + Route_r322
 + Route_r323 + Route_r324 + Route_r325 + Route_r328 + Route_r329 + Route_r330
 + Route_r337 + Route_r343 + Route_r344 + Route_r345 + Route_r348 + Route_r351
 + Route_r365 + Route_r366 + Route_r369 + Route_r373 + Route_r73 + Route_r74
 + Route_r75 + Route_r76 + Route_r77 + Route_r87 + Route_r88 + Route_r92
 + Route_r93 + Route_r98 + Route_r99 = 1
Four_Square_EvergladeDemands: Route_r1 + Route_r11 + Route_r14 + Route_r15
 + Route_r16 + Route_r17 + Route_r19 + Route_r2 + Route_r21 + Route_r217
 + Route_r218 + Route_r220 + Route_r221 + Route_r222 + Route_r227 + Route_r23
 + Route_r230 + Route_r231 + Route_r232 + Route_r233 + Route_r235 + Route_r237
 + Route_r239 + Route_r24 + Route_r240 + Route_r241 + Route_r244 + Route_r248
 + Route_r249 + Route_r25 + Route_r251 + Route_r28 + Route_r32 + Route_r33
 + Route_r35 + Route_r4 + Route_r5 + Route_r6 = 1
Four_Square_Fair_Price_HendersonDemands: Route_r256 + Route_r258 + Route_r259
 + Route_r260 + Route_r261 + Route_r262 + Route_r263 + Route_r277 + Route_r278
 + Route_r279 + Route_r280 + Route_r285 + Route_r286 + Route_r40 + Route_r42
 + Route_r43 + Route_r44 + Route_r45 + Route_r46 + Route_r47 + Route_r61
 + Route_r62 + Route_r63 + Route_r64 + Route_r69 + Route_r70 = 1
Four_Square_Glen_EdenDemands: Route_r257 + Route_r258 + Route_r259
 + Route_r262 + Route_r263 + Route_r268 + Route_r269 + Route_r270 + Route_r271
 + Route_r274 + Route_r276 + Route_r278 + Route_r279 + Route_r280 + Route_r286
 + Route_r41 + Route_r42 + Route_r43 + Route_r46 + Route_r47 + Route_r52
 + Route_r53 + Route_r54 + Route_r55 + Route_r58 + Route_r60 + Route_r62
 + Route_r63 + Route_r64 + Route_r70 = 1
Four_Square_HobsonvilleDemands: Route_r259 + Route_r261 + Route_r262
 + Route_r264 + Route_r269 + Route_r280 + Route_r284 + Route_r285 + Route_r286
 + Route_r287 + Route_r43 + Route_r45 + Route_r46 + Route_r48 + Route_r53
 + Route_r64 + Route_r68 + Route_r69 + Route_r70 + Route_r71 = 1
Four_Square_LancasterDemands: Route_r166 + Route_r167 + Route_r168
 + Route_r169 + Route_r171 + Route_r172 + Route_r177 + Route_r189 + Route_r190
 + Route_r193 + Route_r195 + Route_r196 + Route_r197 + Route_r198 + Route_r199
 + Route_r214 + Route_r382 + Route_r383 + Route_r384 + Route_r385 + Route_r387
 + Route_r388 + Route_r393 + Route_r405 + Route_r406 + Route_r409 + Route_r411
 + Route_r412 + Route_r413 + Route_r414 + Route_r415 + Route_r430 = 1
Four_Square_Pakuranga_HeightsDemands: Route_r115 + Route_r116 + Route_r117
 + Route_r120 + Route_r121 + Route_r152 + Route_r153 + Route_r290 + Route_r291
 + Route_r292 + Route_r297 + Route_r298 + Route_r299 + Route_r300 + Route_r302
 + Route_r303 + Route_r304 + Route_r331 + Route_r332 + Route_r333 + Route_r336
 + Route_r337 + Route_r368 + Route_r369 + Route_r74 + Route_r75 + Route_r76
 + Route_r81 + Route_r82 + Route_r83 + Route_r84 + Route_r86 + Route_r87
 + Route_r88 = 1
Four_Square_St_HeliersDemands: Route_r110 + Route_r111 + Route_r112
 + Route_r113 + Route_r114 + Route_r128 + Route_r129 + Route_r157 + Route_r288
 + Route_r289 + Route_r290 + Route_r295 + Route_r296 + Route_r304 + Route_r326
 + Route_r327 + Route_r328 + Route_r329 + Route_r330 + Route_r344 + Route_r345
 + Route_r373 + Route_r72 + Route_r73 + Route_r74 + Route_r79 + Route_r80
 + Route_r88 = 1
Four_Square_TorbayDemands: Route_r161 + Route_r167 + Route_r174 + Route_r175
 + Route_r176 + Route_r177 + Route_r190 + Route_r196 + Route_r211 + Route_r212
 + Route_r213 + Route_r214 + Route_r377 + Route_r383 + Route_r390 + Route_r391
 + Route_r392 + Route_r393 + Route_r406 + Route_r412 + Route_r427 + Route_r428
 + Route_r429 + Route_r430 = 1
New_World_AlbanyDemands: Route_r173 + Route_r174 + Route_r175 + Route_r199
 + Route_r205 + Route_r206 + Route_r207 + Route_r213 + Route_r214 + Route_r389
 + Route_r390 + Route_r391 + Route_r415 + Route_r421 + Route_r422 + Route_r423
 + Route_r429 + Route_r430 = 1
New_World_BirkenheadDemands: Route_r168 + Route_r191 + Route_r192 + Route_r193
 + Route_r384 + Route_r407 + Route_r408 + Route_r409 = 1
New_World_BotanyDemands: Route_r101 + Route_r102 + Route_r141 + Route_r142
 + Route_r291 + Route_r297 + Route_r298 + Route_r299 + Route_r300 + Route_r305
 + Route_r306 + Route_r311 + Route_r312 + Route_r313 + Route_r317 + Route_r318
 + Route_r357 + Route_r358 + Route_r75 + Route_r81 + Route_r82 + Route_r83
 + Route_r84 + Route_r89 + Route_r90 + Route_r95 + Route_r96 + Route_r97 = 1
New_World_Browns_BayDemands: Route_r176 + Route_r177 + Route_r210 + Route_r212
 + Route_r213 + Route_r214 + Route_r216 + Route_r392 + Route_r393 + Route_r426
 + Route_r428 + Route_r429 + Route_r430 + Route_r432 = 1
New_World_DevonportDemands: Route_r158 + Route_r165 + Route_r166 + Route_r167
 + Route_r187 + Route_r188 + Route_r189 + Route_r190 + Route_r374 + Route_r381
 + Route_r382 + Route_r383 + Route_r403 + Route_r404 + Route_r405 + Route_r406
 = 1
New_World_EastridgeDemands: Route_r111 + Route_r112 + Route_r113 + Route_r114
 + Route_r133 + Route_r134 + Route_r135 + Route_r296 + Route_r327 + Route_r328
 + Route_r329 + Route_r330 + Route_r349 + Route_r350 + Route_r351 + Route_r80
 = 1
New_World_Green_BayDemands: Route_r266 + Route_r267 + Route_r268 + Route_r269
 + Route_r50 + Route_r51 + Route_r52 + Route_r53 = 1
New_World_HowickDemands: Route_r138 + Route_r139 + Route_r140 + Route_r292
 + Route_r294 + Route_r301 + Route_r302 + Route_r303 + Route_r304 + Route_r311
 + Route_r312 + Route_r313 + Route_r354 + Route_r355 + Route_r356 + Route_r76
 + Route_r78 + Route_r85 + Route_r86 + Route_r87 + Route_r88 + Route_r95
 + Route_r96 + Route_r97 = 1
New_World_Long_BayDemands: Route_r161 + Route_r176 + Route_r177 + Route_r215
 + Route_r216 + Route_r377 + Route_r392 + Route_r393 + Route_r431 + Route_r432
 = 1
New_World_Metro_Queen_StDemands: Route_r162 + Route_r163 + Route_r164
 + Route_r184 + Route_r185 + Route_r186 + Route_r203 + Route_r204 + Route_r378
 + Route_r379 + Route_r380 + Route_r400 + Route_r401 + Route_r402 + Route_r419
 + Route_r420 = 1
New_World_Metro_Shore_CityDemands: Route_r158 + Route_r159 + Route_r160
 + Route_r165 + Route_r166 + Route_r167 + Route_r170 + Route_r171 + Route_r194
 + Route_r195 + Route_r196 + Route_r206 + Route_r207 + Route_r374 + Route_r375
 + Route_r376 + Route_r381 + Route_r382 + Route_r383 + Route_r386 + Route_r387
 + Route_r410 + Route_r411 + Route_r412 + Route_r422 + Route_r423 = 1
New_World_MilfordDemands: Route_r159 + Route_r160 + Route_r172 + Route_r188
 + Route_r189 + Route_r190 + Route_r195 + Route_r196 + Route_r201 + Route_r202
 + Route_r203 + Route_r204 + Route_r375 + Route_r376 + Route_r388 + Route_r404
 + Route_r405 + Route_r406 + Route_r411 + Route_r412 + Route_r417 + Route_r418
 + Route_r419 + Route_r420 = 1
New_World_Mt_RoskillDemands: Route_r125 + Route_r126 + Route_r127 + Route_r128
 + Route_r129 + Route_r147 + Route_r18 + Route_r19 + Route_r221 + Route_r222
 + Route_r234 + Route_r235 + Route_r246 + Route_r30 + Route_r307 + Route_r341
 + Route_r342 + Route_r343 + Route_r344 + Route_r345 + Route_r363 + Route_r5
 + Route_r6 + Route_r91 = 1
New_World_New_LynnDemands: Route_r264 + Route_r265 + Route_r267 + Route_r268
 + Route_r269 + Route_r271 + Route_r273 + Route_r274 + Route_r275 + Route_r276
 + Route_r279 + Route_r280 + Route_r282 + Route_r48 + Route_r49 + Route_r51
 + Route_r52 + Route_r53 + Route_r55 + Route_r57 + Route_r58 + Route_r59
 + Route_r60 + Route_r63 + Route_r64 + Route_r66 = 1
New_World_OrmistonDemands: Route_r10 + Route_r11 + Route_r124 + Route_r143
 + Route_r144 + Route_r145 + Route_r220 + Route_r226 + Route_r227 + Route_r241
 + Route_r25 + Route_r305 + Route_r306 + Route_r340 + Route_r359 + Route_r360
 + Route_r361 + Route_r4 + Route_r89 + Route_r90 = 1
New_World_PapakuraDemands: Route_r219 + Route_r242 + Route_r243 + Route_r244
 + Route_r26 + Route_r27 + Route_r28 + Route_r3 = 1
New_World_PapatoetoeDemands: Route_r1 + Route_r12 + Route_r13 + Route_r20
 + Route_r21 + Route_r217 + Route_r220 + Route_r223 + Route_r224 + Route_r228
 + Route_r229 + Route_r236 + Route_r237 + Route_r4 + Route_r7 + Route_r8 = 1
New_World_RemueraDemands: Route_r100 + Route_r130 + Route_r131 + Route_r132
 + Route_r134 + Route_r135 + Route_r295 + Route_r296 + Route_r308 + Route_r309
 + Route_r310 + Route_r316 + Route_r346 + Route_r347 + Route_r348 + Route_r350
 + Route_r351 + Route_r79 + Route_r80 + Route_r92 + Route_r93 + Route_r94 = 1
New_World_SouthmallDemands: Route_r14 + Route_r2 + Route_r218 + Route_r22
 + Route_r225 + Route_r23 + Route_r230 + Route_r238 + Route_r239 + Route_r24
 + Route_r240 + Route_r241 + Route_r243 + Route_r244 + Route_r25 + Route_r251
 + Route_r253 + Route_r254 + Route_r27 + Route_r28 + Route_r35 + Route_r37
 + Route_r38 + Route_r9 = 1
New_World_StonefieldsDemands: Route_r103 + Route_r104 + Route_r136
 + Route_r137 + Route_r150 + Route_r293 + Route_r309 + Route_r310 + Route_r315
 + Route_r319 + Route_r320 + Route_r352 + Route_r353 + Route_r366 + Route_r77
 + Route_r93 + Route_r94 + Route_r99 = 1
New_World_Victoria_ParkDemands: Route_r162 + Route_r163 + Route_r180
 + Route_r182 + Route_r183 + Route_r378 + Route_r379 + Route_r396 + Route_r398
 + Route_r399 = 1
Pak_'n_Save_AlbanyDemands: Route_r173 + Route_r175 + Route_r198 + Route_r199
 + Route_r208 + Route_r209 + Route_r389 + Route_r391 + Route_r414 + Route_r415
 + Route_r424 + Route_r425 = 1
Pak_'n_Save_BotanyDemands: Route_r101 + Route_r102 + Route_r116 + Route_r117
 + Route_r119 + Route_r120 + Route_r121 + Route_r140 + Route_r151 + Route_r152
 + Route_r153 + Route_r155 + Route_r294 + Route_r317 + Route_r318 + Route_r332
 + Route_r333 + Route_r335 + Route_r336 + Route_r337 + Route_r356 + Route_r367
 + Route_r368 + Route_r369 + Route_r371 + Route_r78 = 1
Pak_'n_Save_ClendonDemands: Route_r225 + Route_r250 + Route_r251 + Route_r34
 + Route_r35 + Route_r9 = 1
Pak_'n_Save_Glen_InnesDemands: Route_r103 + Route_r104 + Route_r156
 + Route_r157 + Route_r288 + Route_r289 + Route_r290 + Route_r319 + Route_r320
 + Route_r372 + Route_r373 + Route_r72 + Route_r73 + Route_r74 = 1
Pak_'n_Save_HendersonDemands: Route_r256 + Route_r257 + Route_r258
 + Route_r259 + Route_r272 + Route_r273 + Route_r274 + Route_r40 + Route_r41
 + Route_r42 + Route_r43 + Route_r56 + Route_r57 + Route_r58 = 1
Pak_'n_Save_Lincoln_RoadDemands: Route_r260 + Route_r261 + Route_r262
 + Route_r263 + Route_r281 + Route_r282 + Route_r44 + Route_r45 + Route_r46
 + Route_r47 + Route_r65 + Route_r66 = 1
Pak_'n_Save_MangereDemands: Route_r18 + Route_r19 + Route_r223 + Route_r224
 + Route_r234 + Route_r235 + Route_r245 + Route_r246 + Route_r29 + Route_r30
 + Route_r7 + Route_r8 = 1
Pak_'n_Save_ManukauDemands: Route_r1 + Route_r12 + Route_r13 + Route_r2
 + Route_r217 + Route_r218 + Route_r222 + Route_r228 + Route_r229 + Route_r247
 + Route_r248 + Route_r249 + Route_r31 + Route_r32 + Route_r33 + Route_r6 = 1
Pak_'n_Save_Mt_AlbertDemands: Route_r178 + Route_r179 + Route_r180
 + Route_r183 + Route_r185 + Route_r186 + Route_r275 + Route_r276 + Route_r394
 + Route_r395 + Route_r396 + Route_r399 + Route_r401 + Route_r402 + Route_r59
 + Route_r60 = 1
Pak_'n_Save_OrmistonDemands: Route_r144 + Route_r145 + Route_r15 + Route_r154
 + Route_r155 + Route_r231 + Route_r255 + Route_r360 + Route_r361 + Route_r370
 + Route_r371 + Route_r39 = 1
Pak_'n_Save_PapakuraDemands: Route_r14 + Route_r219 + Route_r230 + Route_r252
 + Route_r253 + Route_r254 + Route_r3 + Route_r36 + Route_r37 + Route_r38 = 1
Pak_'n_Save_Royal_OakDemands: Route_r105 + Route_r106 + Route_r107
 + Route_r108 + Route_r131 + Route_r132 + Route_r146 + Route_r147 + Route_r307
 + Route_r314 + Route_r315 + Route_r321 + Route_r322 + Route_r323 + Route_r324
 + Route_r347 + Route_r348 + Route_r362 + Route_r363 + Route_r91 + Route_r98
 + Route_r99 = 1
Pak_'n_Save_Sylvia_ParkDemands: Route_r100 + Route_r123 + Route_r124
 + Route_r137 + Route_r148 + Route_r149 + Route_r150 + Route_r316 + Route_r339
 + Route_r340 + Route_r353 + Route_r364 + Route_r365 + Route_r366 = 1
Pak_'n_Save_Wairau_RoadDemands: Route_r169 + Route_r170 + Route_r171
 + Route_r172 + Route_r192 + Route_r193 + Route_r200 + Route_r201 + Route_r209
 + Route_r385 + Route_r386 + Route_r387 + Route_r388 + Route_r408 + Route_r409
 + Route_r416 + Route_r417 + Route_r425 = 1
Pak_'n_Save_WestgateDemands: Route_r264 + Route_r283 + Route_r284 + Route_r285
 + Route_r286 + Route_r48 + Route_r67 + Route_r68 + Route_r69 + Route_r70 = 1
TruckRestrictions: Route_r1 + Route_r10 + Route_r100 + Route_r101 + Route_r102
 + Route_r103 + Route_r104 + Route_r105 + Route_r106 + Route_r107 + Route_r108
 + Route_r109 + Route_r11 + Route_r110 + Route_r111 + Route_r112 + Route_r113
 + Route_r114 + Route_r115 + Route_r116 + Route_r117 + Route_r118 + Route_r119
 + Route_r12 + Route_r120 + Route_r121 + Route_r122 + Route_r123 + Route_r124
 + Route_r125 + Route_r126 + Route_r127 + Route_r128 + Route_r129 + Route_r13
 + Route_r130 + Route_r131 + Route_r132 + Route_r133 + Route_r134 + Route_r135
 + Route_r136 + Route_r137 + Route_r138 + Route_r139 + Route_r14 + Route_r140
 + Route_r141 + Route_r142 + Route_r143 + Route_r144 + Route_r145 + Route_r146
 + Route_r147 + Route_r148 + Route_r149 + Route_r15 + Route_r150 + Route_r151
 + Route_r152 + Route_r153 + Route_r154 + Route_r155 + Route_r156 + Route_r157
 + Route_r158 + Route_r159 + Route_r16 + Route_r160 + Route_r161 + Route_r162
 + Route_r163 + Route_r164 + Route_r165 + Route_r166 + Route_r167 + Route_r168
 + Route_r169 + Route_r17 + Route_r170 + Route_r171 + Route_r172 + Route_r173
 + Route_r174 + Route_r175 + Route_r176 + Route_r177 + Route_r178 + Route_r179
 + Route_r18 + Route_r180 + Route_r181 + Route_r182 + Route_r183 + Route_r184
 + Route_r185 + Route_r186 + Route_r187 + Route_r188 + Route_r189 + Route_r19
 + Route_r190 + Route_r191 + Route_r192 + Route_r193 + Route_r194 + Route_r195
 + Route_r196 + Route_r197 + Route_r198 + Route_r199 + Route_r2 + Route_r20
 + Route_r200 + Route_r201 + Route_r202 + Route_r203 + Route_r204 + Route_r205
 + Route_r206 + Route_r207 + Route_r208 + Route_r209 + Route_r21 + Route_r210
 + Route_r211 + Route_r212 + Route_r213 + Route_r214 + Route_r215 + Route_r216
 + Route_r22 + Route_r23 + Route_r24 + Route_r25 + Route_r26 + Route_r27
 + Route_r28 + Route_r29 + Route_r3 + Route_r30 + Route_r31 + Route_r32
 + Route_r33 + Route_r34 + Route_r35 + Route_r36 + Route_r37 + Route_r38
 + Route_r39 + Route_r4 + Route_r40 + Route_r41 + Route_r42 + Route_r43
 + Route_r44 + Route_r45 + Route_r46 + Route_r47 + Route_r48 + Route_r49
 + Route_r5 + Route_r50 + Route_r51 + Route_r52 + Route_r53 + Route_r54
 + Route_r55 + Route_r56 + Route_r57 + Route_r58 + Route_r59 + Route_r6
 + Route_r60 + Route_r61 + Route_r62 + Route_r63 + Route_r64 + Route_r65
 + Route_r66 + Route_r67 + Route_r68 + Route_r69 + Route_r7 + Route_r70
 + Route_r71 + Route_r72 + Route_r73 + Route_r74 + Route_r75 + Route_r76
 + Route_r77 + Route_r78 + Route_r79 + Route_r8 + Route_r80 + Route_r81
 + Route_r82 + Route_r83 + Route_r84 + Route_r85 + Route_r86 + Route_r87
 + Route_r88 + Route_r89 + Route_r9 + Route_r90 + Route_r91 + Route_r92
 + Route_r93 + Route_r94 + Route_r95 + Route_r96 + Route_r97 + Route_r98
 + Route_r99 <= 24
Binaries
Route_r1
Route_r10
Route_r100
Route_r101
Route_r102
Route_r103
Route_r104
Route_r105
Route_r106
Route_r107
Route_r108
Route_r109
Route_r11
Route_r110
Route_r111
Route_r112
Route_r113
Route_r114
Route_r115
Route_r116
Route_r117
Route_r118
Route_r119
Route_r12
Route_r120
Route_r121
Route_r122
Route_r123
Route_r124
Route_r125
Route_r126
Route_r127
Route_r128
Route_r129
Route_r13
Route_r130
Route_r131
Route_r132
Route_r133
Route_r134
Route_r135
Route_r136
Route_r137
Route_r138
Route_r139
Route_r14
Route_r140
Route_r141
Route_r142
Route_r143
Route_r144
Route_r145
Route_r146
Route_r147
Route_r148
Route_r149
Route_r15
Route_r150
Route_r151
Route_r152
Route_r153
Route_r154
Route_r155
Route_r156
Route_r157
Route_r158
Route_r159
Route_r16
Route_r160
Route_r161
Route_r162
Route_r163
Route_r164
Route_r165
Route_r166
Route_r167
Route_r168
Route_r169
Route_r17
Route_r170
Route_r171
Route_r172
Route_r173
Route_r174
Route_r175
Route_r176
Route_r177
Route_r178
Route_r179
Route_r18
Route_r180
Route_r181
Route_r182
Route_r183
Route_r184
Route_r185
Route_r186
Route_r187
Route_r188
Route_r189
Route_r19
Route_r190
Route_r191
Route_r192
Route_r193
Route_r194
Route_r195
Route_r196
Route_r197
Route_r198
Route_r199
Route_r2
Route_r20
Route_r200
Route_r201
Route_r202
Route_r203
Route_r204
Route_r205
Route_r206
Route_r207
Route_r208
Route_r209
Route_r21
Route_r210
Route_r211
Route_r212
Route_r213
Route_r214
Route_r215
Route_r216
Route_r217
Route_r218
Route_r219
Route_r22
Route_r220
Route_r221
Route_r222
Route_r223
Route_r224
Route_r225
Route_r226
Route_r227
Route_r228
Route_r229
Route_r23
Route_r230
Route_r231
Route_r232
Route_r233
Route_r234
Route_r235
Route_r236
Route_r237
Route_r238
Route_r239
Route_r24
Route_r240
Route_r241
Route_r242
Route_r243
Route_r244
Route_r245
Route_r246
Route_r247
Route_r248
Route_r249
Route_r25
Route_r250
Route_r251
Route_r252
Route_r253
Route_r254
Route_r255
Route_r256
Route_r257
Route_r258
Route_r259
Route_r26
Route_r260
Route_r261
Route_r262
Route_r263
Route_r264
Route_r265
Route_r266
Route_r267
Route_r268
Route_r269
Route_r27
Route_r270
Route_r271
Route_r272
Route_r273
Route_r274
Route_r275
Route_r276
Route_r277
Route_r278
Route_r279
Route_r28
Route_r280
Route_r281
Route_r282
Route_r283
Route_r284
Route_r285
Route_r286
Route_r287
Route_r288
Route_r289
Route_r29
Route_r290
Route_r291
Route_r292
Route_r293
Route_r294
Route_r295
Route_r296
Route_r297
Route_r298
Route_r299
Route_r3
Route_r30
Route_r300
Route_r301
Route_r302
Route_r303
Route_r304
Route_r305
Route_r306
Route_r307
Route_r308
Route_r309
Route_r31
Route_r310
Route_r311
Route_r312
Route_r313
Route_r314
Route_r315
Route_r316
Route_r317
Route_r318
Route_r319
Route_r32
Route_r320
Route_r321
Route_r322
Route_r323
Route_r324
Route_r325
Route_r326
Route_r327
Route_r328
Route_r329
Route_r33
Route_r330
Route_r331
Route_r332
Route_r333
Route_r334
Route_r335
Route_r336
Route_r337
Route_r338
Route_r339
Route_r34
Route_r340
Route_r341
Route_r342
Route_r343
Route_r344
Route_r345
Route_r346
Route_r347
Route_r348
Route_r349
Route_r35
Route_r350
Route_r351
Route_r352
Route_r353
Route_r354
Route_r355
Route_r356
Route_r357
Route_r358
Route_r359
Route_r36
Route_r360
Route_r361
Route_r362
Route_r363
Route_r364
Route_r365
Route_r366
Route_r367
Route_r368
Route_r369
Route_r37
Route_r370
Route_r371
Route_r372
Route_r373
Route_r374
Route_r375
Route_r376
Route_r377
Route_r378
Route_r379
Route_r38
Route_r380
Route_r381
Route_r382
Route_r383
Route_r384
Route_r385
Route_r386
Route_r387
Route_r388
Route_r389
Route_r39
Route_r390
Route_r391
Route_r392
Route_r393
Route_r394
Route_r395
Route_r396
Route_r397
Route_r398
Route_r399
Route_r4
Route_r40
Route_r400
Route_r401
Route_r402
Route_r403
Route_r404
Route_r405
Route_r406
Route_r407
Route_r408
Route_r409
Route_r41
Route_r410
Route_r411
Route_r412
Route_r413
Route_r414
Route_r415
Route_r416
Route_r417
Route_r418
Route_r419
Route_r42
Route_r420
Route_r421
Route_r422
Route_r423
Route_r424
Route_r425
Route_r426
Route_r427
Route_r428
Route_r429
Route_r43
Route_r430
Route_r431
Route_r432
Route_r44
Route_r45
Route_r46
Route_r47
Route_r48
Route_r49
Route_r5
Route_r50
Route_r51
Route_r52
Route_r53
Route_r54
Route_r55
Route_r56
Route_r57
Route_r58
Route_r59
Route_r6
Route_r60
Route_r61
Route_r62
Route_r63
Route_r64
Route_r65
Route_r66
Route_r67
Route_r68
Route_r69
Route_r7
Route_r70
Route_r71
Route_r72
Route_r73
Route_r74
Route_r75
Route_r76
Route_r77
Route_r78
Route_r79
Route_r8
Route_r80
Route_r81
Route_r82
Route_r83
Route_r84
Route_r85
Route_r86
Route_r87
Route_r88
Route_r89
Route_r9
Route_r90
Route_r91
Route_r92
Route_r93
Route_r94
Route_r95
Route_r96
Route_r97
Route_r98
Route_r99
End
